$instance size is  1000
letting capacity be  292083
letting items be new type enum { 
a1,a2,a3,a4,a5,a6,a7,a8,a9,a10,a11,a12,a13,a14,a15,a16,a17,a18,a19,a20,a21,a22,a23,a24,a25,a26,a27,a28,a29,a30,a31,a32,a33,a34,a35,a36,a37,a38,a39,a40,a41,a42,a43,a44,a45,a46,a47,a48,a49,a50,a51,a52,a53,a54,a55,a56,a57,a58,a59,a60,a61,a62,a63,a64,a65,a66,a67,a68,a69,a70,a71,a72,a73,a74,a75,a76,a77,a78,a79,a80,a81,a82,a83,a84,a85,a86,a87,a88,a89,a90,a91,a92,a93,a94,a95,a96,a97,a98,a99,a100,a101,a102,a103,a104,a105,a106,a107,a108,a109,a110,a111,a112,a113,a114,a115,a116,a117,a118,a119,a120,a121,a122,a123,a124,a125,a126,a127,a128,a129,a130,a131,a132,a133,a134,a135,a136,a137,a138,a139,a140,a141,a142,a143,a144,a145,a146,a147,a148,a149,a150,a151,a152,a153,a154,a155,a156,a157,a158,a159,a160,a161,a162,a163,a164,a165,a166,a167,a168,a169,a170,a171,a172,a173,a174,a175,a176,a177,a178,a179,a180,a181,a182,a183,a184,a185,a186,a187,a188,a189,a190,a191,a192,a193,a194,a195,a196,a197,a198,a199,a200,a201,a202,a203,a204,a205,a206,a207,a208,a209,a210,a211,a212,a213,a214,a215,a216,a217,a218,a219,a220,a221,a222,a223,a224,a225,a226,a227,a228,a229,a230,a231,a232,a233,a234,a235,a236,a237,a238,a239,a240,a241,a242,a243,a244,a245,a246,a247,a248,a249,a250,a251,a252,a253,a254,a255,a256,a257,a258,a259,a260,a261,a262,a263,a264,a265,a266,a267,a268,a269,a270,a271,a272,a273,a274,a275,a276,a277,a278,a279,a280,a281,a282,a283,a284,a285,a286,a287,a288,a289,a290,a291,a292,a293,a294,a295,a296,a297,a298,a299,a300,a301,a302,a303,a304,a305,a306,a307,a308,a309,a310,a311,a312,a313,a314,a315,a316,a317,a318,a319,a320,a321,a322,a323,a324,a325,a326,a327,a328,a329,a330,a331,a332,a333,a334,a335,a336,a337,a338,a339,a340,a341,a342,a343,a344,a345,a346,a347,a348,a349,a350,a351,a352,a353,a354,a355,a356,a357,a358,a359,a360,a361,a362,a363,a364,a365,a366,a367,a368,a369,a370,a371,a372,a373,a374,a375,a376,a377,a378,a379,a380,a381,a382,a383,a384,a385,a386,a387,a388,a389,a390,a391,a392,a393,a394,a395,a396,a397,a398,a399,a400,a401,a402,a403,a404,a405,a406,a407,a408,a409,a410,a411,a412,a413,a414,a415,a416,a417,a418,a419,a420,a421,a422,a423,a424,a425,a426,a427,a428,a429,a430,a431,a432,a433,a434,a435,a436,a437,a438,a439,a440,a441,a442,a443,a444,a445,a446,a447,a448,a449,a450,a451,a452,a453,a454,a455,a456,a457,a458,a459,a460,a461,a462,a463,a464,a465,a466,a467,a468,a469,a470,a471,a472,a473,a474,a475,a476,a477,a478,a479,a480,a481,a482,a483,a484,a485,a486,a487,a488,a489,a490,a491,a492,a493,a494,a495,a496,a497,a498,a499,a500,a501,a502,a503,a504,a505,a506,a507,a508,a509,a510,a511,a512,a513,a514,a515,a516,a517,a518,a519,a520,a521,a522,a523,a524,a525,a526,a527,a528,a529,a530,a531,a532,a533,a534,a535,a536,a537,a538,a539,a540,a541,a542,a543,a544,a545,a546,a547,a548,a549,a550,a551,a552,a553,a554,a555,a556,a557,a558,a559,a560,a561,a562,a563,a564,a565,a566,a567,a568,a569,a570,a571,a572,a573,a574,a575,a576,a577,a578,a579,a580,a581,a582,a583,a584,a585,a586,a587,a588,a589,a590,a591,a592,a593,a594,a595,a596,a597,a598,a599,a600,a601,a602,a603,a604,a605,a606,a607,a608,a609,a610,a611,a612,a613,a614,a615,a616,a617,a618,a619,a620,a621,a622,a623,a624,a625,a626,a627,a628,a629,a630,a631,a632,a633,a634,a635,a636,a637,a638,a639,a640,a641,a642,a643,a644,a645,a646,a647,a648,a649,a650,a651,a652,a653,a654,a655,a656,a657,a658,a659,a660,a661,a662,a663,a664,a665,a666,a667,a668,a669,a670,a671,a672,a673,a674,a675,a676,a677,a678,a679,a680,a681,a682,a683,a684,a685,a686,a687,a688,a689,a690,a691,a692,a693,a694,a695,a696,a697,a698,a699,a700,a701,a702,a703,a704,a705,a706,a707,a708,a709,a710,a711,a712,a713,a714,a715,a716,a717,a718,a719,a720,a721,a722,a723,a724,a725,a726,a727,a728,a729,a730,a731,a732,a733,a734,a735,a736,a737,a738,a739,a740,a741,a742,a743,a744,a745,a746,a747,a748,a749,a750,a751,a752,a753,a754,a755,a756,a757,a758,a759,a760,a761,a762,a763,a764,a765,a766,a767,a768,a769,a770,a771,a772,a773,a774,a775,a776,a777,a778,a779,a780,a781,a782,a783,a784,a785,a786,a787,a788,a789,a790,a791,a792,a793,a794,a795,a796,a797,a798,a799,a800,a801,a802,a803,a804,a805,a806,a807,a808,a809,a810,a811,a812,a813,a814,a815,a816,a817,a818,a819,a820,a821,a822,a823,a824,a825,a826,a827,a828,a829,a830,a831,a832,a833,a834,a835,a836,a837,a838,a839,a840,a841,a842,a843,a844,a845,a846,a847,a848,a849,a850,a851,a852,a853,a854,a855,a856,a857,a858,a859,a860,a861,a862,a863,a864,a865,a866,a867,a868,a869,a870,a871,a872,a873,a874,a875,a876,a877,a878,a879,a880,a881,a882,a883,a884,a885,a886,a887,a888,a889,a890,a891,a892,a893,a894,a895,a896,a897,a898,a899,a900,a901,a902,a903,a904,a905,a906,a907,a908,a909,a910,a911,a912,a913,a914,a915,a916,a917,a918,a919,a920,a921,a922,a923,a924,a925,a926,a927,a928,a929,a930,a931,a932,a933,a934,a935,a936,a937,a938,a939,a940,a941,a942,a943,a944,a945,a946,a947,a948,a949,a950,a951,a952,a953,a954,a955,a956,a957,a958,a959,a960,a961,a962,a963,a964,a965,a966,a967,a968,a969,a970,a971,a972,a973,a974,a975,a976,a977,a978,a979,a980,a981,a982,a983,a984,a985,a986,a987,a988,a989,a990,a991,a992,a993,a994,a995,a996,a997,a998,a999,a1000
}
letting weight be function (
a1 --> 590,a2 --> 118,a3 --> 944,a4 --> 826,a5 --> 192,a6 --> 768,a7 --> 96,a8 --> 960,a9 --> 192,a10 --> 118,a11 --> 1180,a12 --> 864,a13 --> 576,a14 --> 576,a15 --> 192,a16 --> 864,a17 --> 354,a18 --> 944,a19 --> 384,a20 --> 384,a21 --> 708,a22 --> 96,a23 --> 960,a24 --> 384,a25 --> 1062,a26 --> 826,a27 --> 944,a28 --> 472,a29 --> 288,a30 --> 480,a31 --> 590,a32 --> 480,a33 --> 960,a34 --> 768,a35 --> 590,a36 --> 590,a37 --> 384,a38 --> 1062,a39 --> 236,a40 --> 118,a41 --> 944,a42 --> 118,a43 --> 354,a44 --> 672,a45 --> 472,a46 --> 472,a47 --> 826,a48 --> 192,a49 --> 472,a50 --> 118,a51 --> 768,a52 --> 354,a53 --> 472,a54 --> 472,a55 --> 236,a56 --> 960,a57 --> 590,a58 --> 960,a59 --> 768,a60 --> 826,a61 --> 576,a62 --> 768,a63 --> 384,a64 --> 864,a65 --> 708,a66 --> 192,a67 --> 354,a68 --> 576,a69 --> 576,a70 --> 960,a71 --> 768,a72 --> 826,a73 --> 864,a74 --> 1062,a75 --> 384,a76 --> 354,a77 --> 864,a78 --> 864,a79 --> 576,a80 --> 236,a81 --> 1062,a82 --> 672,a83 --> 576,a84 --> 960,a85 --> 192,a86 --> 96,a87 --> 96,a88 --> 1062,a89 --> 672,a90 --> 944,a91 --> 96,a92 --> 960,a93 --> 192,a94 --> 96,a95 --> 576,a96 --> 826,a97 --> 590,a98 --> 480,a99 --> 118,a100 --> 864,a101 --> 590,a102 --> 1180,a103 --> 118,a104 --> 236,a105 --> 826,a106 --> 480,a107 --> 864,a108 --> 472,a109 --> 864,a110 --> 384,a111 --> 118,a112 --> 1180,a113 --> 288,a114 --> 1180,a115 --> 944,a116 --> 864,a117 --> 1180,a118 --> 590,a119 --> 708,a120 --> 480,a121 --> 944,a122 --> 384,a123 --> 96,a124 --> 384,a125 --> 708,a126 --> 96,a127 --> 672,a128 --> 708,a129 --> 384,a130 --> 472,a131 --> 826,a132 --> 288,a133 --> 192,a134 --> 826,a135 --> 192,a136 --> 354,a137 --> 826,a138 --> 472,a139 --> 384,a140 --> 192,a141 --> 672,a142 --> 96,a143 --> 576,a144 --> 192,a145 --> 96,a146 --> 576,a147 --> 960,a148 --> 354,a149 --> 826,a150 --> 1180,a151 --> 576,a152 --> 864,a153 --> 288,a154 --> 960,a155 --> 1180,a156 --> 118,a157 --> 480,a158 --> 96,a159 --> 192,a160 --> 480,a161 --> 96,a162 --> 354,a163 --> 576,a164 --> 1180,a165 --> 1062,a166 --> 1180,a167 --> 960,a168 --> 118,a169 --> 672,a170 --> 288,a171 --> 944,a172 --> 480,a173 --> 288,a174 --> 354,a175 --> 768,a176 --> 480,a177 --> 354,a178 --> 192,a179 --> 288,a180 --> 1180,a181 --> 826,a182 --> 288,a183 --> 1180,a184 --> 826,a185 --> 864,a186 --> 960,a187 --> 944,a188 --> 288,a189 --> 118,a190 --> 826,a191 --> 960,a192 --> 672,a193 --> 944,a194 --> 384,a195 --> 944,a196 --> 118,a197 --> 118,a198 --> 192,a199 --> 354,a200 --> 708,a201 --> 590,a202 --> 118,a203 --> 944,a204 --> 672,a205 --> 1062,a206 --> 590,a207 --> 472,a208 --> 708,a209 --> 708,a210 --> 236,a211 --> 480,a212 --> 472,a213 --> 118,a214 --> 288,a215 --> 826,a216 --> 480,a217 --> 590,a218 --> 864,a219 --> 864,a220 --> 960,a221 --> 384,a222 --> 1180,a223 --> 672,a224 --> 480,a225 --> 1062,a226 --> 708,a227 --> 590,a228 --> 384,a229 --> 1180,a230 --> 864,a231 --> 590,a232 --> 590,a233 --> 944,a234 --> 768,a235 --> 708,a236 --> 1180,a237 --> 672,a238 --> 1062,a239 --> 472,a240 --> 236,a241 --> 192,a242 --> 768,a243 --> 96,a244 --> 288,a245 --> 672,a246 --> 480,a247 --> 236,a248 --> 944,a249 --> 944,a250 --> 288,a251 --> 118,a252 --> 944,a253 --> 960,a254 --> 480,a255 --> 480,a256 --> 118,a257 --> 960,a258 --> 944,a259 --> 1180,a260 --> 1062,a261 --> 960,a262 --> 1180,a263 --> 384,a264 --> 1180,a265 --> 472,a266 --> 590,a267 --> 960,a268 --> 236,a269 --> 590,a270 --> 1180,a271 --> 708,a272 --> 944,a273 --> 192,a274 --> 118,a275 --> 384,a276 --> 480,a277 --> 192,a278 --> 768,a279 --> 708,a280 --> 864,a281 --> 288,a282 --> 960,a283 --> 864,a284 --> 944,a285 --> 826,a286 --> 236,a287 --> 590,a288 --> 1180,a289 --> 384,a290 --> 864,a291 --> 1180,a292 --> 576,a293 --> 472,a294 --> 960,a295 --> 1062,a296 --> 480,a297 --> 768,a298 --> 96,a299 --> 288,a300 --> 826,a301 --> 672,a302 --> 480,a303 --> 1062,a304 --> 590,a305 --> 960,a306 --> 768,a307 --> 236,a308 --> 1062,a309 --> 944,a310 --> 944,a311 --> 944,a312 --> 236,a313 --> 354,a314 --> 96,a315 --> 708,a316 --> 960,a317 --> 96,a318 --> 1180,a319 --> 864,a320 --> 480,a321 --> 288,a322 --> 236,a323 --> 768,a324 --> 1180,a325 --> 384,a326 --> 96,a327 --> 288,a328 --> 826,a329 --> 864,a330 --> 944,a331 --> 576,a332 --> 236,a333 --> 96,a334 --> 960,a335 --> 768,a336 --> 480,a337 --> 288,a338 --> 826,a339 --> 192,a340 --> 960,a341 --> 1062,a342 --> 944,a343 --> 118,a344 --> 576,a345 --> 672,a346 --> 472,a347 --> 576,a348 --> 1180,a349 --> 768,a350 --> 384,a351 --> 236,a352 --> 672,a353 --> 480,a354 --> 708,a355 --> 192,a356 --> 354,a357 --> 96,a358 --> 1180,a359 --> 708,a360 --> 288,a361 --> 768,a362 --> 472,a363 --> 944,a364 --> 1062,a365 --> 354,a366 --> 768,a367 --> 96,a368 --> 118,a369 --> 768,a370 --> 1062,a371 --> 864,a372 --> 944,a373 --> 288,a374 --> 590,a375 --> 118,a376 --> 1180,a377 --> 960,a378 --> 480,a379 --> 96,a380 --> 236,a381 --> 708,a382 --> 960,a383 --> 384,a384 --> 826,a385 --> 864,a386 --> 960,a387 --> 768,a388 --> 1062,a389 --> 864,a390 --> 1180,a391 --> 944,a392 --> 354,a393 --> 576,a394 --> 354,a395 --> 480,a396 --> 192,a397 --> 288,a398 --> 1180,a399 --> 1180,a400 --> 768,a401 --> 472,a402 --> 96,a403 --> 96,a404 --> 708,a405 --> 236,a406 --> 118,a407 --> 672,a408 --> 354,a409 --> 236,a410 --> 472,a411 --> 480,a412 --> 768,a413 --> 480,a414 --> 864,a415 --> 118,a416 --> 118,a417 --> 708,a418 --> 118,a419 --> 826,a420 --> 472,a421 --> 236,a422 --> 590,a423 --> 192,a424 --> 288,a425 --> 960,a426 --> 354,a427 --> 672,a428 --> 768,a429 --> 864,a430 --> 576,a431 --> 472,a432 --> 708,a433 --> 576,a434 --> 236,a435 --> 768,a436 --> 672,a437 --> 192,a438 --> 768,a439 --> 864,a440 --> 960,a441 --> 472,a442 --> 944,a443 --> 944,a444 --> 864,a445 --> 590,a446 --> 192,a447 --> 960,a448 --> 236,a449 --> 672,a450 --> 384,a451 --> 1180,a452 --> 472,a453 --> 576,a454 --> 576,a455 --> 672,a456 --> 590,a457 --> 288,a458 --> 288,a459 --> 1062,a460 --> 672,a461 --> 826,a462 --> 590,a463 --> 96,a464 --> 354,a465 --> 1062,a466 --> 384,a467 --> 590,a468 --> 96,a469 --> 864,a470 --> 1062,a471 --> 672,a472 --> 236,a473 --> 472,a474 --> 590,a475 --> 708,a476 --> 960,a477 --> 576,a478 --> 288,a479 --> 288,a480 --> 590,a481 --> 944,a482 --> 118,a483 --> 192,a484 --> 384,a485 --> 354,a486 --> 236,a487 --> 192,a488 --> 288,a489 --> 236,a490 --> 708,a491 --> 1180,a492 --> 480,a493 --> 288,a494 --> 192,a495 --> 354,a496 --> 1180,a497 --> 472,a498 --> 672,a499 --> 480,a500 --> 96,a501 --> 672,a502 --> 708,a503 --> 384,a504 --> 1062,a505 --> 590,a506 --> 118,a507 --> 1180,a508 --> 1062,a509 --> 1062,a510 --> 354,a511 --> 826,a512 --> 288,a513 --> 472,a514 --> 768,a515 --> 864,a516 --> 384,a517 --> 944,a518 --> 384,a519 --> 192,a520 --> 480,a521 --> 944,a522 --> 384,a523 --> 1062,a524 --> 192,a525 --> 944,a526 --> 864,a527 --> 118,a528 --> 826,a529 --> 192,a530 --> 118,a531 --> 708,a532 --> 236,a533 --> 708,a534 --> 1062,a535 --> 288,a536 --> 192,a537 --> 672,a538 --> 480,a539 --> 480,a540 --> 590,a541 --> 576,a542 --> 1062,a543 --> 118,a544 --> 354,a545 --> 192,a546 --> 96,a547 --> 826,a548 --> 354,a549 --> 672,a550 --> 768,a551 --> 384,a552 --> 236,a553 --> 1180,a554 --> 960,a555 --> 960,a556 --> 236,a557 --> 384,a558 --> 480,a559 --> 384,a560 --> 480,a561 --> 960,a562 --> 354,a563 --> 1180,a564 --> 944,a565 --> 384,a566 --> 768,a567 --> 192,a568 --> 944,a569 --> 590,a570 --> 672,a571 --> 288,a572 --> 480,a573 --> 960,a574 --> 118,a575 --> 354,a576 --> 96,a577 --> 96,a578 --> 1180,a579 --> 480,a580 --> 1180,a581 --> 864,a582 --> 1062,a583 --> 944,a584 --> 768,a585 --> 672,a586 --> 118,a587 --> 354,a588 --> 672,a589 --> 192,a590 --> 118,a591 --> 236,a592 --> 354,a593 --> 118,a594 --> 480,a595 --> 1180,a596 --> 96,a597 --> 708,a598 --> 708,a599 --> 480,a600 --> 472,a601 --> 708,a602 --> 480,a603 --> 960,a604 --> 96,a605 --> 826,a606 --> 1180,a607 --> 590,a608 --> 960,a609 --> 864,a610 --> 672,a611 --> 576,a612 --> 384,a613 --> 1180,a614 --> 192,a615 --> 354,a616 --> 960,a617 --> 944,a618 --> 944,a619 --> 1062,a620 --> 590,a621 --> 864,a622 --> 288,a623 --> 354,a624 --> 576,a625 --> 960,a626 --> 96,a627 --> 118,a628 --> 590,a629 --> 944,a630 --> 1180,a631 --> 590,a632 --> 864,a633 --> 826,a634 --> 768,a635 --> 354,a636 --> 576,a637 --> 192,a638 --> 864,a639 --> 826,a640 --> 118,a641 --> 192,a642 --> 944,a643 --> 192,a644 --> 960,a645 --> 472,a646 --> 354,a647 --> 672,a648 --> 590,a649 --> 708,a650 --> 118,a651 --> 192,a652 --> 96,a653 --> 864,a654 --> 944,a655 --> 472,a656 --> 118,a657 --> 118,a658 --> 708,a659 --> 480,a660 --> 768,a661 --> 354,a662 --> 590,a663 --> 192,a664 --> 864,a665 --> 944,a666 --> 472,a667 --> 590,a668 --> 590,a669 --> 864,a670 --> 672,a671 --> 768,a672 --> 672,a673 --> 96,a674 --> 576,a675 --> 96,a676 --> 1180,a677 --> 1062,a678 --> 118,a679 --> 576,a680 --> 384,a681 --> 96,a682 --> 236,a683 --> 288,a684 --> 288,a685 --> 354,a686 --> 864,a687 --> 1062,a688 --> 1180,a689 --> 672,a690 --> 236,a691 --> 826,a692 --> 96,a693 --> 1062,a694 --> 288,a695 --> 944,a696 --> 672,a697 --> 480,a698 --> 118,a699 --> 354,a700 --> 944,a701 --> 384,a702 --> 864,a703 --> 864,a704 --> 288,a705 --> 768,a706 --> 480,a707 --> 708,a708 --> 118,a709 --> 472,a710 --> 354,a711 --> 960,a712 --> 768,a713 --> 1180,a714 --> 96,a715 --> 288,a716 --> 590,a717 --> 192,a718 --> 288,a719 --> 590,a720 --> 944,a721 --> 944,a722 --> 480,a723 --> 384,a724 --> 236,a725 --> 288,a726 --> 118,a727 --> 576,a728 --> 1180,a729 --> 672,a730 --> 960,a731 --> 96,a732 --> 480,a733 --> 118,a734 --> 354,a735 --> 236,a736 --> 480,a737 --> 96,a738 --> 590,a739 --> 384,a740 --> 864,a741 --> 864,a742 --> 672,a743 --> 768,a744 --> 1180,a745 --> 96,a746 --> 96,a747 --> 944,a748 --> 480,a749 --> 960,a750 --> 672,a751 --> 236,a752 --> 1180,a753 --> 288,a754 --> 288,a755 --> 576,a756 --> 354,a757 --> 480,a758 --> 192,a759 --> 118,a760 --> 118,a761 --> 354,a762 --> 864,a763 --> 590,a764 --> 1062,a765 --> 472,a766 --> 480,a767 --> 864,a768 --> 472,a769 --> 960,a770 --> 864,a771 --> 288,a772 --> 960,a773 --> 354,a774 --> 708,a775 --> 672,a776 --> 236,a777 --> 354,a778 --> 1180,a779 --> 864,a780 --> 590,a781 --> 672,a782 --> 1062,a783 --> 384,a784 --> 768,a785 --> 192,a786 --> 480,a787 --> 576,a788 --> 944,a789 --> 960,a790 --> 192,a791 --> 480,a792 --> 288,a793 --> 354,a794 --> 472,a795 --> 768,a796 --> 354,a797 --> 118,a798 --> 768,a799 --> 472,a800 --> 1180,a801 --> 672,a802 --> 354,a803 --> 944,a804 --> 826,a805 --> 672,a806 --> 354,a807 --> 590,a808 --> 354,a809 --> 1180,a810 --> 708,a811 --> 768,a812 --> 768,a813 --> 118,a814 --> 590,a815 --> 236,a816 --> 590,a817 --> 1180,a818 --> 472,a819 --> 192,a820 --> 354,a821 --> 96,a822 --> 708,a823 --> 768,a824 --> 590,a825 --> 480,a826 --> 236,a827 --> 826,a828 --> 672,a829 --> 960,a830 --> 672,a831 --> 576,a832 --> 96,a833 --> 118,a834 --> 288,a835 --> 944,a836 --> 96,a837 --> 96,a838 --> 472,a839 --> 1062,a840 --> 768,a841 --> 96,a842 --> 768,a843 --> 944,a844 --> 576,a845 --> 236,a846 --> 944,a847 --> 118,a848 --> 288,a849 --> 472,a850 --> 944,a851 --> 708,a852 --> 288,a853 --> 384,a854 --> 96,a855 --> 96,a856 --> 118,a857 --> 1180,a858 --> 480,a859 --> 576,a860 --> 768,a861 --> 118,a862 --> 354,a863 --> 960,a864 --> 96,a865 --> 1180,a866 --> 708,a867 --> 672,a868 --> 1180,a869 --> 288,a870 --> 384,a871 --> 354,a872 --> 672,a873 --> 118,a874 --> 944,a875 --> 480,a876 --> 1062,a877 --> 708,a878 --> 480,a879 --> 864,a880 --> 354,a881 --> 480,a882 --> 826,a883 --> 192,a884 --> 944,a885 --> 1062,a886 --> 236,a887 --> 768,a888 --> 472,a889 --> 288,a890 --> 826,a891 --> 288,a892 --> 236,a893 --> 708,a894 --> 672,a895 --> 1180,a896 --> 576,a897 --> 768,a898 --> 944,a899 --> 672,a900 --> 864,a901 --> 826,a902 --> 236,a903 --> 826,a904 --> 708,a905 --> 354,a906 --> 768,a907 --> 384,a908 --> 864,a909 --> 672,a910 --> 118,a911 --> 1180,a912 --> 826,a913 --> 480,a914 --> 1062,a915 --> 708,a916 --> 768,a917 --> 236,a918 --> 118,a919 --> 118,a920 --> 826,a921 --> 826,a922 --> 864,a923 --> 826,a924 --> 768,a925 --> 672,a926 --> 288,a927 --> 236,a928 --> 672,a929 --> 472,a930 --> 480,a931 --> 672,a932 --> 960,a933 --> 96,a934 --> 590,a935 --> 1180,a936 --> 768,a937 --> 708,a938 --> 288,a939 --> 944,a940 --> 768,a941 --> 708,a942 --> 672,a943 --> 590,a944 --> 826,a945 --> 472,a946 --> 768,a947 --> 472,a948 --> 354,a949 --> 826,a950 --> 472,a951 --> 480,a952 --> 472,a953 --> 384,a954 --> 864,a955 --> 1062,a956 --> 768,a957 --> 1180,a958 --> 826,a959 --> 590,a960 --> 236,a961 --> 960,a962 --> 472,a963 --> 708,a964 --> 590,a965 --> 864,a966 --> 118,a967 --> 944,a968 --> 864,a969 --> 864,a970 --> 118,a971 --> 672,a972 --> 590,a973 --> 472,a974 --> 672,a975 --> 576,a976 --> 708,a977 --> 118,a978 --> 192,a979 --> 354,a980 --> 864,a981 --> 1180,a982 --> 288,a983 --> 672,a984 --> 480,a985 --> 354,a986 --> 1062,a987 --> 1180,a988 --> 590,a989 --> 590,a990 --> 192,a991 --> 472,a992 --> 384,a993 --> 96,a994 --> 590,a995 --> 944,a996 --> 354,a997 --> 480,a998 --> 826,a999 --> 472,a1000 --> 236
)
letting gain be function (
a1 --> 690,a2 --> 138,a3 --> 1104,a4 --> 966,a5 --> 232,a6 --> 928,a7 --> 116,a8 --> 1160,a9 --> 232,a10 --> 138,a11 --> 1380,a12 --> 1044,a13 --> 696,a14 --> 696,a15 --> 232,a16 --> 1044,a17 --> 414,a18 --> 1104,a19 --> 464,a20 --> 464,a21 --> 828,a22 --> 116,a23 --> 1160,a24 --> 464,a25 --> 1242,a26 --> 966,a27 --> 1104,a28 --> 552,a29 --> 348,a30 --> 580,a31 --> 690,a32 --> 580,a33 --> 1160,a34 --> 928,a35 --> 690,a36 --> 690,a37 --> 464,a38 --> 1242,a39 --> 276,a40 --> 138,a41 --> 1104,a42 --> 138,a43 --> 414,a44 --> 812,a45 --> 552,a46 --> 552,a47 --> 966,a48 --> 232,a49 --> 552,a50 --> 138,a51 --> 928,a52 --> 414,a53 --> 552,a54 --> 552,a55 --> 276,a56 --> 1160,a57 --> 690,a58 --> 1160,a59 --> 928,a60 --> 966,a61 --> 696,a62 --> 928,a63 --> 464,a64 --> 1044,a65 --> 828,a66 --> 232,a67 --> 414,a68 --> 696,a69 --> 696,a70 --> 1160,a71 --> 928,a72 --> 966,a73 --> 1044,a74 --> 1242,a75 --> 464,a76 --> 414,a77 --> 1044,a78 --> 1044,a79 --> 696,a80 --> 276,a81 --> 1242,a82 --> 812,a83 --> 696,a84 --> 1160,a85 --> 232,a86 --> 116,a87 --> 116,a88 --> 1242,a89 --> 812,a90 --> 1104,a91 --> 116,a92 --> 1160,a93 --> 232,a94 --> 116,a95 --> 696,a96 --> 966,a97 --> 690,a98 --> 580,a99 --> 138,a100 --> 1044,a101 --> 690,a102 --> 1380,a103 --> 138,a104 --> 276,a105 --> 966,a106 --> 580,a107 --> 1044,a108 --> 552,a109 --> 1044,a110 --> 464,a111 --> 138,a112 --> 1380,a113 --> 348,a114 --> 1380,a115 --> 1104,a116 --> 1044,a117 --> 1380,a118 --> 690,a119 --> 828,a120 --> 580,a121 --> 1104,a122 --> 464,a123 --> 116,a124 --> 464,a125 --> 828,a126 --> 116,a127 --> 812,a128 --> 828,a129 --> 464,a130 --> 552,a131 --> 966,a132 --> 348,a133 --> 232,a134 --> 966,a135 --> 232,a136 --> 414,a137 --> 966,a138 --> 552,a139 --> 464,a140 --> 232,a141 --> 812,a142 --> 116,a143 --> 696,a144 --> 232,a145 --> 116,a146 --> 696,a147 --> 1160,a148 --> 414,a149 --> 966,a150 --> 1380,a151 --> 696,a152 --> 1044,a153 --> 348,a154 --> 1160,a155 --> 1380,a156 --> 138,a157 --> 580,a158 --> 116,a159 --> 232,a160 --> 580,a161 --> 116,a162 --> 414,a163 --> 696,a164 --> 1380,a165 --> 1242,a166 --> 1380,a167 --> 1160,a168 --> 138,a169 --> 812,a170 --> 348,a171 --> 1104,a172 --> 580,a173 --> 348,a174 --> 414,a175 --> 928,a176 --> 580,a177 --> 414,a178 --> 232,a179 --> 348,a180 --> 1380,a181 --> 966,a182 --> 348,a183 --> 1380,a184 --> 966,a185 --> 1044,a186 --> 1160,a187 --> 1104,a188 --> 348,a189 --> 138,a190 --> 966,a191 --> 1160,a192 --> 812,a193 --> 1104,a194 --> 464,a195 --> 1104,a196 --> 138,a197 --> 138,a198 --> 232,a199 --> 414,a200 --> 828,a201 --> 690,a202 --> 138,a203 --> 1104,a204 --> 812,a205 --> 1242,a206 --> 690,a207 --> 552,a208 --> 828,a209 --> 828,a210 --> 276,a211 --> 580,a212 --> 552,a213 --> 138,a214 --> 348,a215 --> 966,a216 --> 580,a217 --> 690,a218 --> 1044,a219 --> 1044,a220 --> 1160,a221 --> 464,a222 --> 1380,a223 --> 812,a224 --> 580,a225 --> 1242,a226 --> 828,a227 --> 690,a228 --> 464,a229 --> 1380,a230 --> 1044,a231 --> 690,a232 --> 690,a233 --> 1104,a234 --> 928,a235 --> 828,a236 --> 1380,a237 --> 812,a238 --> 1242,a239 --> 552,a240 --> 276,a241 --> 232,a242 --> 928,a243 --> 116,a244 --> 348,a245 --> 812,a246 --> 580,a247 --> 276,a248 --> 1104,a249 --> 1104,a250 --> 348,a251 --> 138,a252 --> 1104,a253 --> 1160,a254 --> 580,a255 --> 580,a256 --> 138,a257 --> 1160,a258 --> 1104,a259 --> 1380,a260 --> 1242,a261 --> 1160,a262 --> 1380,a263 --> 464,a264 --> 1380,a265 --> 552,a266 --> 690,a267 --> 1160,a268 --> 276,a269 --> 690,a270 --> 1380,a271 --> 828,a272 --> 1104,a273 --> 232,a274 --> 138,a275 --> 464,a276 --> 580,a277 --> 232,a278 --> 928,a279 --> 828,a280 --> 1044,a281 --> 348,a282 --> 1160,a283 --> 1044,a284 --> 1104,a285 --> 966,a286 --> 276,a287 --> 690,a288 --> 1380,a289 --> 464,a290 --> 1044,a291 --> 1380,a292 --> 696,a293 --> 552,a294 --> 1160,a295 --> 1242,a296 --> 580,a297 --> 928,a298 --> 116,a299 --> 348,a300 --> 966,a301 --> 812,a302 --> 580,a303 --> 1242,a304 --> 690,a305 --> 1160,a306 --> 928,a307 --> 276,a308 --> 1242,a309 --> 1104,a310 --> 1104,a311 --> 1104,a312 --> 276,a313 --> 414,a314 --> 116,a315 --> 828,a316 --> 1160,a317 --> 116,a318 --> 1380,a319 --> 1044,a320 --> 580,a321 --> 348,a322 --> 276,a323 --> 928,a324 --> 1380,a325 --> 464,a326 --> 116,a327 --> 348,a328 --> 966,a329 --> 1044,a330 --> 1104,a331 --> 696,a332 --> 276,a333 --> 116,a334 --> 1160,a335 --> 928,a336 --> 580,a337 --> 348,a338 --> 966,a339 --> 232,a340 --> 1160,a341 --> 1242,a342 --> 1104,a343 --> 138,a344 --> 696,a345 --> 812,a346 --> 552,a347 --> 696,a348 --> 1380,a349 --> 928,a350 --> 464,a351 --> 276,a352 --> 812,a353 --> 580,a354 --> 828,a355 --> 232,a356 --> 414,a357 --> 116,a358 --> 1380,a359 --> 828,a360 --> 348,a361 --> 928,a362 --> 552,a363 --> 1104,a364 --> 1242,a365 --> 414,a366 --> 928,a367 --> 116,a368 --> 138,a369 --> 928,a370 --> 1242,a371 --> 1044,a372 --> 1104,a373 --> 348,a374 --> 690,a375 --> 138,a376 --> 1380,a377 --> 1160,a378 --> 580,a379 --> 116,a380 --> 276,a381 --> 828,a382 --> 1160,a383 --> 464,a384 --> 966,a385 --> 1044,a386 --> 1160,a387 --> 928,a388 --> 1242,a389 --> 1044,a390 --> 1380,a391 --> 1104,a392 --> 414,a393 --> 696,a394 --> 414,a395 --> 580,a396 --> 232,a397 --> 348,a398 --> 1380,a399 --> 1380,a400 --> 928,a401 --> 552,a402 --> 116,a403 --> 116,a404 --> 828,a405 --> 276,a406 --> 138,a407 --> 812,a408 --> 414,a409 --> 276,a410 --> 552,a411 --> 580,a412 --> 928,a413 --> 580,a414 --> 1044,a415 --> 138,a416 --> 138,a417 --> 828,a418 --> 138,a419 --> 966,a420 --> 552,a421 --> 276,a422 --> 690,a423 --> 232,a424 --> 348,a425 --> 1160,a426 --> 414,a427 --> 812,a428 --> 928,a429 --> 1044,a430 --> 696,a431 --> 552,a432 --> 828,a433 --> 696,a434 --> 276,a435 --> 928,a436 --> 812,a437 --> 232,a438 --> 928,a439 --> 1044,a440 --> 1160,a441 --> 552,a442 --> 1104,a443 --> 1104,a444 --> 1044,a445 --> 690,a446 --> 232,a447 --> 1160,a448 --> 276,a449 --> 812,a450 --> 464,a451 --> 1380,a452 --> 552,a453 --> 696,a454 --> 696,a455 --> 812,a456 --> 690,a457 --> 348,a458 --> 348,a459 --> 1242,a460 --> 812,a461 --> 966,a462 --> 690,a463 --> 116,a464 --> 414,a465 --> 1242,a466 --> 464,a467 --> 690,a468 --> 116,a469 --> 1044,a470 --> 1242,a471 --> 812,a472 --> 276,a473 --> 552,a474 --> 690,a475 --> 828,a476 --> 1160,a477 --> 696,a478 --> 348,a479 --> 348,a480 --> 690,a481 --> 1104,a482 --> 138,a483 --> 232,a484 --> 464,a485 --> 414,a486 --> 276,a487 --> 232,a488 --> 348,a489 --> 276,a490 --> 828,a491 --> 1380,a492 --> 580,a493 --> 348,a494 --> 232,a495 --> 414,a496 --> 1380,a497 --> 552,a498 --> 812,a499 --> 580,a500 --> 116,a501 --> 812,a502 --> 828,a503 --> 464,a504 --> 1242,a505 --> 690,a506 --> 138,a507 --> 1380,a508 --> 1242,a509 --> 1242,a510 --> 414,a511 --> 966,a512 --> 348,a513 --> 552,a514 --> 928,a515 --> 1044,a516 --> 464,a517 --> 1104,a518 --> 464,a519 --> 232,a520 --> 580,a521 --> 1104,a522 --> 464,a523 --> 1242,a524 --> 232,a525 --> 1104,a526 --> 1044,a527 --> 138,a528 --> 966,a529 --> 232,a530 --> 138,a531 --> 828,a532 --> 276,a533 --> 828,a534 --> 1242,a535 --> 348,a536 --> 232,a537 --> 812,a538 --> 580,a539 --> 580,a540 --> 690,a541 --> 696,a542 --> 1242,a543 --> 138,a544 --> 414,a545 --> 232,a546 --> 116,a547 --> 966,a548 --> 414,a549 --> 812,a550 --> 928,a551 --> 464,a552 --> 276,a553 --> 1380,a554 --> 1160,a555 --> 1160,a556 --> 276,a557 --> 464,a558 --> 580,a559 --> 464,a560 --> 580,a561 --> 1160,a562 --> 414,a563 --> 1380,a564 --> 1104,a565 --> 464,a566 --> 928,a567 --> 232,a568 --> 1104,a569 --> 690,a570 --> 812,a571 --> 348,a572 --> 580,a573 --> 1160,a574 --> 138,a575 --> 414,a576 --> 116,a577 --> 116,a578 --> 1380,a579 --> 580,a580 --> 1380,a581 --> 1044,a582 --> 1242,a583 --> 1104,a584 --> 928,a585 --> 812,a586 --> 138,a587 --> 414,a588 --> 812,a589 --> 232,a590 --> 138,a591 --> 276,a592 --> 414,a593 --> 138,a594 --> 580,a595 --> 1380,a596 --> 116,a597 --> 828,a598 --> 828,a599 --> 580,a600 --> 552,a601 --> 828,a602 --> 580,a603 --> 1160,a604 --> 116,a605 --> 966,a606 --> 1380,a607 --> 690,a608 --> 1160,a609 --> 1044,a610 --> 812,a611 --> 696,a612 --> 464,a613 --> 1380,a614 --> 232,a615 --> 414,a616 --> 1160,a617 --> 1104,a618 --> 1104,a619 --> 1242,a620 --> 690,a621 --> 1044,a622 --> 348,a623 --> 414,a624 --> 696,a625 --> 1160,a626 --> 116,a627 --> 138,a628 --> 690,a629 --> 1104,a630 --> 1380,a631 --> 690,a632 --> 1044,a633 --> 966,a634 --> 928,a635 --> 414,a636 --> 696,a637 --> 232,a638 --> 1044,a639 --> 966,a640 --> 138,a641 --> 232,a642 --> 1104,a643 --> 232,a644 --> 1160,a645 --> 552,a646 --> 414,a647 --> 812,a648 --> 690,a649 --> 828,a650 --> 138,a651 --> 232,a652 --> 116,a653 --> 1044,a654 --> 1104,a655 --> 552,a656 --> 138,a657 --> 138,a658 --> 828,a659 --> 580,a660 --> 928,a661 --> 414,a662 --> 690,a663 --> 232,a664 --> 1044,a665 --> 1104,a666 --> 552,a667 --> 690,a668 --> 690,a669 --> 1044,a670 --> 812,a671 --> 928,a672 --> 812,a673 --> 116,a674 --> 696,a675 --> 116,a676 --> 1380,a677 --> 1242,a678 --> 138,a679 --> 696,a680 --> 464,a681 --> 116,a682 --> 276,a683 --> 348,a684 --> 348,a685 --> 414,a686 --> 1044,a687 --> 1242,a688 --> 1380,a689 --> 812,a690 --> 276,a691 --> 966,a692 --> 116,a693 --> 1242,a694 --> 348,a695 --> 1104,a696 --> 812,a697 --> 580,a698 --> 138,a699 --> 414,a700 --> 1104,a701 --> 464,a702 --> 1044,a703 --> 1044,a704 --> 348,a705 --> 928,a706 --> 580,a707 --> 828,a708 --> 138,a709 --> 552,a710 --> 414,a711 --> 1160,a712 --> 928,a713 --> 1380,a714 --> 116,a715 --> 348,a716 --> 690,a717 --> 232,a718 --> 348,a719 --> 690,a720 --> 1104,a721 --> 1104,a722 --> 580,a723 --> 464,a724 --> 276,a725 --> 348,a726 --> 138,a727 --> 696,a728 --> 1380,a729 --> 812,a730 --> 1160,a731 --> 116,a732 --> 580,a733 --> 138,a734 --> 414,a735 --> 276,a736 --> 580,a737 --> 116,a738 --> 690,a739 --> 464,a740 --> 1044,a741 --> 1044,a742 --> 812,a743 --> 928,a744 --> 1380,a745 --> 116,a746 --> 116,a747 --> 1104,a748 --> 580,a749 --> 1160,a750 --> 812,a751 --> 276,a752 --> 1380,a753 --> 348,a754 --> 348,a755 --> 696,a756 --> 414,a757 --> 580,a758 --> 232,a759 --> 138,a760 --> 138,a761 --> 414,a762 --> 1044,a763 --> 690,a764 --> 1242,a765 --> 552,a766 --> 580,a767 --> 1044,a768 --> 552,a769 --> 1160,a770 --> 1044,a771 --> 348,a772 --> 1160,a773 --> 414,a774 --> 828,a775 --> 812,a776 --> 276,a777 --> 414,a778 --> 1380,a779 --> 1044,a780 --> 690,a781 --> 812,a782 --> 1242,a783 --> 464,a784 --> 928,a785 --> 232,a786 --> 580,a787 --> 696,a788 --> 1104,a789 --> 1160,a790 --> 232,a791 --> 580,a792 --> 348,a793 --> 414,a794 --> 552,a795 --> 928,a796 --> 414,a797 --> 138,a798 --> 928,a799 --> 552,a800 --> 1380,a801 --> 812,a802 --> 414,a803 --> 1104,a804 --> 966,a805 --> 812,a806 --> 414,a807 --> 690,a808 --> 414,a809 --> 1380,a810 --> 828,a811 --> 928,a812 --> 928,a813 --> 138,a814 --> 690,a815 --> 276,a816 --> 690,a817 --> 1380,a818 --> 552,a819 --> 232,a820 --> 414,a821 --> 116,a822 --> 828,a823 --> 928,a824 --> 690,a825 --> 580,a826 --> 276,a827 --> 966,a828 --> 812,a829 --> 1160,a830 --> 812,a831 --> 696,a832 --> 116,a833 --> 138,a834 --> 348,a835 --> 1104,a836 --> 116,a837 --> 116,a838 --> 552,a839 --> 1242,a840 --> 928,a841 --> 116,a842 --> 928,a843 --> 1104,a844 --> 696,a845 --> 276,a846 --> 1104,a847 --> 138,a848 --> 348,a849 --> 552,a850 --> 1104,a851 --> 828,a852 --> 348,a853 --> 464,a854 --> 116,a855 --> 116,a856 --> 138,a857 --> 1380,a858 --> 580,a859 --> 696,a860 --> 928,a861 --> 138,a862 --> 414,a863 --> 1160,a864 --> 116,a865 --> 1380,a866 --> 828,a867 --> 812,a868 --> 1380,a869 --> 348,a870 --> 464,a871 --> 414,a872 --> 812,a873 --> 138,a874 --> 1104,a875 --> 580,a876 --> 1242,a877 --> 828,a878 --> 580,a879 --> 1044,a880 --> 414,a881 --> 580,a882 --> 966,a883 --> 232,a884 --> 1104,a885 --> 1242,a886 --> 276,a887 --> 928,a888 --> 552,a889 --> 348,a890 --> 966,a891 --> 348,a892 --> 276,a893 --> 828,a894 --> 812,a895 --> 1380,a896 --> 696,a897 --> 928,a898 --> 1104,a899 --> 812,a900 --> 1044,a901 --> 966,a902 --> 276,a903 --> 966,a904 --> 828,a905 --> 414,a906 --> 928,a907 --> 464,a908 --> 1044,a909 --> 812,a910 --> 138,a911 --> 1380,a912 --> 966,a913 --> 580,a914 --> 1242,a915 --> 828,a916 --> 928,a917 --> 276,a918 --> 138,a919 --> 138,a920 --> 966,a921 --> 966,a922 --> 1044,a923 --> 966,a924 --> 928,a925 --> 812,a926 --> 348,a927 --> 276,a928 --> 812,a929 --> 552,a930 --> 580,a931 --> 812,a932 --> 1160,a933 --> 116,a934 --> 690,a935 --> 1380,a936 --> 928,a937 --> 828,a938 --> 348,a939 --> 1104,a940 --> 928,a941 --> 828,a942 --> 812,a943 --> 690,a944 --> 966,a945 --> 552,a946 --> 928,a947 --> 552,a948 --> 414,a949 --> 966,a950 --> 552,a951 --> 580,a952 --> 552,a953 --> 464,a954 --> 1044,a955 --> 1242,a956 --> 928,a957 --> 1380,a958 --> 966,a959 --> 690,a960 --> 276,a961 --> 1160,a962 --> 552,a963 --> 828,a964 --> 690,a965 --> 1044,a966 --> 138,a967 --> 1104,a968 --> 1044,a969 --> 1044,a970 --> 138,a971 --> 812,a972 --> 690,a973 --> 552,a974 --> 812,a975 --> 696,a976 --> 828,a977 --> 138,a978 --> 232,a979 --> 414,a980 --> 1044,a981 --> 1380,a982 --> 348,a983 --> 812,a984 --> 580,a985 --> 414,a986 --> 1242,a987 --> 1380,a988 --> 690,a989 --> 690,a990 --> 232,a991 --> 552,a992 --> 464,a993 --> 116,a994 --> 690,a995 --> 1104,a996 --> 414,a997 --> 580,a998 --> 966,a999 --> 552,a1000 --> 276
)
